c nIsolatedPIs 0
c maxPI 128
p cnf 674 1639
c gate 129 23 -25 0
23 -129 0
-25 -129 0
-23 25 129 0
c gate 130 -23 25 0
-23 -130 0
25 -130 0
23 -25 130 0
c gate 131 -129 -130 0
-129 -131 0
-130 -131 0
129 130 131 0
c gate 132 -21 131 0
-21 -132 0
131 -132 0
21 -131 132 0
c gate 133 21 -131 0
21 -133 0
-131 -133 0
-21 131 133 0
c gate 134 -26 -27 0
-26 -134 0
-27 -134 0
26 27 134 0
c gate 135 26 27 0
26 -135 0
27 -135 0
-26 -27 135 0
c gate 136 -134 -135 0
-134 -136 0
-135 -136 0
134 135 136 0
c gate 137 -133 -136 0
-133 -137 0
-136 -137 0
133 136 137 0
c gate 138 -132 137 0
-132 -138 0
137 -138 0
132 -137 138 0
c gate 139 -23 -27 0
-23 -139 0
-27 -139 0
23 27 139 0
c gate 140 23 27 0
23 -140 0
27 -140 0
-23 -27 140 0
c gate 141 -139 -140 0
-139 -141 0
-140 -141 0
139 140 141 0
c gate 142 -22 -141 0
-22 -142 0
-141 -142 0
22 141 142 0
c gate 143 22 130 0
22 -143 0
130 -143 0
-22 -130 143 0
c gate 144 -21 -26 0
-21 -144 0
-26 -144 0
21 26 144 0
c gate 145 -129 144 0
-129 -145 0
144 -145 0
129 -144 145 0
c gate 146 -143 145 0
-143 -146 0
145 -146 0
143 -145 146 0
c gate 147 -142 146 0
-142 -147 0
146 -147 0
142 -146 147 0
c gate 148 -26 133 0
-26 -148 0
133 -148 0
26 -133 148 0
c gate 149 -23 -25 0
-23 -149 0
-25 -149 0
23 25 149 0
c gate 150 -21 26 0
-21 -150 0
26 -150 0
21 -26 150 0
c gate 151 149 150 0
149 -151 0
150 -151 0
-149 -150 151 0
c gate 152 -148 -151 0
-148 -152 0
-151 -152 0
148 151 152 0
c gate 153 -147 152 0
-147 -153 0
152 -153 0
147 -152 153 0
c gate 154 -138 153 0
-138 -154 0
153 -154 0
138 -153 154 0
c gate 155 -25 -154 0
-25 -155 0
-154 -155 0
25 154 155 0
c gate 156 -27 -155 0
-27 -156 0
-155 -156 0
27 155 156 0
c gate 157 -19 -20 0
-19 -157 0
-20 -157 0
19 20 157 0
c gate 158 -17 -18 0
-17 -158 0
-18 -158 0
17 18 158 0
c gate 159 -15 -16 0
-15 -159 0
-16 -159 0
15 16 159 0
c gate 160 -12 -14 0
-12 -160 0
-14 -160 0
12 14 160 0
c gate 161 -10 -11 0
-10 -161 0
-11 -161 0
10 11 161 0
c gate 162 -8 -9 0
-8 -162 0
-9 -162 0
8 9 162 0
c gate 163 -4 -5 0
-4 -163 0
-5 -163 0
4 5 163 0
c gate 164 -3 -128 0
-3 -164 0
-128 -164 0
3 128 164 0
c gate 165 163 -164 0
163 -165 0
-164 -165 0
-163 164 165 0
c gate 166 -6 -7 0
-6 -166 0
-7 -166 0
6 7 166 0
c gate 167 -165 166 0
-165 -167 0
166 -167 0
165 -166 167 0
c gate 168 162 -167 0
162 -168 0
-167 -168 0
-162 167 168 0
c gate 169 161 -168 0
161 -169 0
-168 -169 0
-161 168 169 0
c gate 170 160 -169 0
160 -170 0
-169 -170 0
-160 169 170 0
c gate 171 159 -170 0
159 -171 0
-170 -171 0
-159 170 171 0
c gate 172 158 -171 0
158 -172 0
-171 -172 0
-158 171 172 0
c gate 173 157 -172 0
157 -173 0
-172 -173 0
-157 172 173 0
c gate 174 157 158 0
157 -174 0
158 -174 0
-157 -158 174 0
c gate 175 159 160 0
159 -175 0
160 -175 0
-159 -160 175 0
c gate 176 -126 -127 0
-126 -176 0
-127 -176 0
126 127 176 0
c gate 177 161 176 0
161 -177 0
176 -177 0
-161 -176 177 0
c gate 178 162 163 0
162 -178 0
163 -178 0
-162 -163 178 0
c gate 179 177 178 0
177 -179 0
178 -179 0
-177 -178 179 0
c gate 180 175 179 0
175 -180 0
179 -180 0
-175 -179 180 0
c gate 181 167 180 0
167 -181 0
180 -181 0
-167 -180 181 0
c gate 182 174 181 0
174 -182 0
181 -182 0
-174 -181 182 0
c gate 183 -124 -125 0
-124 -183 0
-125 -183 0
124 125 183 0
c gate 184 -122 -123 0
-122 -184 0
-123 -184 0
122 123 184 0
c gate 185 -120 -121 0
-120 -185 0
-121 -185 0
120 121 185 0
c gate 186 -117 -119 0
-117 -186 0
-119 -186 0
117 119 186 0
c gate 187 -115 -116 0
-115 -187 0
-116 -187 0
115 116 187 0
c gate 188 -113 -114 0
-113 -188 0
-114 -188 0
113 114 188 0
c gate 189 -111 -112 0
-111 -189 0
-112 -189 0
111 112 189 0
c gate 190 -109 -110 0
-109 -190 0
-110 -190 0
109 110 190 0
c gate 191 -106 -108 0
-106 -191 0
-108 -191 0
106 108 191 0
c gate 192 154 174 0
154 -192 0
174 -192 0
-154 -174 192 0
c gate 193 -30 -31 0
-30 -193 0
-31 -193 0
30 31 193 0
c gate 194 -29 193 0
-29 -194 0
193 -194 0
29 -193 194 0
c gate 195 -28 194 0
-28 -195 0
194 -195 0
28 -194 195 0
c gate 196 -32 -33 0
-32 -196 0
-33 -196 0
32 33 196 0
c gate 197 134 196 0
134 -197 0
196 -197 0
-134 -196 197 0
c gate 198 195 197 0
195 -198 0
197 -198 0
-195 -197 198 0
c gate 199 192 198 0
192 -199 0
198 -199 0
-192 -198 199 0
c gate 200 189 190 0
189 -200 0
190 -200 0
-189 -190 200 0
c gate 201 199 200 0
199 -201 0
200 -201 0
-199 -200 201 0
c gate 202 -104 -105 0
-104 -202 0
-105 -202 0
104 105 202 0
c gate 203 191 202 0
191 -203 0
202 -203 0
-191 -202 203 0
c gate 204 201 -203 0
201 -204 0
-203 -204 0
-201 203 204 0
c gate 205 183 184 0
183 -205 0
184 -205 0
-183 -184 205 0
c gate 206 185 186 0
185 -206 0
186 -206 0
-185 -186 206 0
c gate 207 205 206 0
205 -207 0
206 -207 0
-205 -206 207 0
c gate 208 181 -207 0
181 -208 0
-207 -208 0
-181 207 208 0
c gate 209 187 188 0
187 -209 0
188 -209 0
-187 -188 209 0
c gate 210 -208 209 0
-208 -210 0
209 -210 0
208 -209 210 0
c gate 211 -204 210 0
-204 -211 0
210 -211 0
204 -210 211 0
c gate 212 -102 -103 0
-102 -212 0
-103 -212 0
102 103 212 0
c gate 213 211 -212 0
211 -213 0
-212 -213 0
-211 212 213 0
c gate 214 191 -213 0
191 -214 0
-213 -214 0
-191 213 214 0
c gate 215 -100 -101 0
-100 -215 0
-101 -215 0
100 101 215 0
c gate 216 212 215 0
212 -216 0
215 -216 0
-212 -215 216 0
c gate 217 201 -216 0
201 -217 0
-216 -217 0
-201 216 217 0
c gate 218 211 -217 0
211 -218 0
-217 -218 0
-211 217 218 0
c gate 219 -98 -99 0
-98 -219 0
-99 -219 0
98 99 219 0
c gate 220 -95 -97 0
-95 -220 0
-97 -220 0
95 97 220 0
c gate 221 -93 -94 0
-93 -221 0
-94 -221 0
93 94 221 0
c gate 222 -91 -92 0
-91 -222 0
-92 -222 0
91 92 222 0
c gate 223 199 222 0
199 -223 0
222 -223 0
-199 -222 223 0
c gate 224 -89 -90 0
-89 -224 0
-90 -224 0
89 90 224 0
c gate 225 -87 -88 0
-87 -225 0
-88 -225 0
87 88 225 0
c gate 226 -84 -86 0
-84 -226 0
-86 -226 0
84 86 226 0
c gate 227 -82 -83 0
-82 -227 0
-83 -227 0
82 83 227 0
c gate 228 -80 -81 0
-80 -228 0
-81 -228 0
80 81 228 0
c gate 229 -78 -79 0
-78 -229 0
-79 -229 0
78 79 229 0
c gate 230 -76 -77 0
-76 -230 0
-77 -230 0
76 77 230 0
c gate 231 -73 -75 0
-73 -231 0
-75 -231 0
73 75 231 0
c gate 232 -65 -66 0
-65 -232 0
-66 -232 0
65 66 232 0
c gate 233 -62 -64 0
-62 -233 0
-64 -233 0
62 64 233 0
c gate 234 -60 -61 0
-60 -234 0
-61 -234 0
60 61 234 0
c gate 235 -58 -59 0
-58 -235 0
-59 -235 0
58 59 235 0
c gate 236 234 -235 0
234 -236 0
-235 -236 0
-234 235 236 0
c gate 237 233 -236 0
233 -237 0
-236 -237 0
-233 236 237 0
c gate 238 232 -237 0
232 -238 0
-237 -238 0
-232 237 238 0
c gate 239 -71 -72 0
-71 -239 0
-72 -239 0
71 72 239 0
c gate 240 -67 -68 0
-67 -240 0
-68 -240 0
67 68 240 0
c gate 241 239 240 0
239 -241 0
240 -241 0
-239 -240 241 0
c gate 242 -238 241 0
-238 -242 0
241 -242 0
238 -241 242 0
c gate 243 231 -242 0
231 -243 0
-242 -243 0
-231 242 243 0
c gate 244 230 -243 0
230 -244 0
-243 -244 0
-230 243 244 0
c gate 245 229 -244 0
229 -245 0
-244 -245 0
-229 244 245 0
c gate 246 228 -245 0
228 -246 0
-245 -246 0
-228 245 246 0
c gate 247 227 -246 0
227 -247 0
-246 -247 0
-227 246 247 0
c gate 248 226 -247 0
226 -248 0
-247 -248 0
-226 247 248 0
c gate 249 225 -248 0
225 -249 0
-248 -249 0
-225 248 249 0
c gate 250 224 -249 0
224 -250 0
-249 -250 0
-224 249 250 0
c gate 251 223 -250 0
223 -251 0
-250 -251 0
-223 250 251 0
c gate 252 221 -251 0
221 -252 0
-251 -252 0
-221 251 252 0
c gate 253 220 -252 0
220 -253 0
-252 -253 0
-220 252 253 0
c gate 254 219 -253 0
219 -254 0
-253 -254 0
-219 253 254 0
c gate 255 218 -254 0
218 -255 0
-254 -255 0
-218 254 255 0
c gate 256 214 -255 0
214 -256 0
-255 -256 0
-214 255 256 0
c gate 257 190 -256 0
190 -257 0
-256 -257 0
-190 256 257 0
c gate 258 189 -257 0
189 -258 0
-257 -258 0
-189 257 258 0
c gate 259 188 -258 0
188 -259 0
-258 -259 0
-188 258 259 0
c gate 260 187 -259 0
187 -260 0
-259 -260 0
-187 259 260 0
c gate 261 186 -260 0
186 -261 0
-260 -261 0
-186 260 261 0
c gate 262 185 -261 0
185 -262 0
-261 -262 0
-185 261 262 0
c gate 263 184 -262 0
184 -263 0
-262 -263 0
-184 262 263 0
c gate 264 183 -263 0
183 -264 0
-263 -264 0
-183 263 264 0
c gate 265 182 -264 0
182 -265 0
-264 -265 0
-182 264 265 0
c gate 266 173 -265 0
173 -266 0
-265 -266 0
-173 265 266 0
c gate 267 -25 -266 0
-25 -267 0
-266 -267 0
25 266 267 0
c gate 268 154 -267 0
154 -268 0
-267 -268 0
-154 267 268 0
c gate 269 156 -268 0
156 -269 0
-268 -269 0
-156 268 269 0
c gate 270 -25 27 0
-25 -270 0
27 -270 0
25 -27 270 0
c gate 271 154 270 0
154 -271 0
270 -271 0
-154 -270 271 0
c gate 272 266 271 0
266 -272 0
271 -272 0
-266 -271 272 0
c gate 273 -23 -272 0
-23 -273 0
-272 -273 0
23 272 273 0
c gate 274 -269 273 0
-269 -274 0
273 -274 0
269 -273 274 0
c gate 275 221 223 0
221 -275 0
223 -275 0
-221 -223 275 0
c gate 276 226 227 0
226 -276 0
227 -276 0
-226 -227 276 0
c gate 277 224 225 0
224 -277 0
225 -277 0
-224 -225 277 0
c gate 278 276 277 0
276 -278 0
277 -278 0
-276 -277 278 0
c gate 279 275 278 0
275 -279 0
278 -279 0
-275 -278 279 0
c gate 280 228 229 0
228 -280 0
229 -280 0
-228 -229 280 0
c gate 281 231 280 0
231 -281 0
280 -281 0
-231 -280 281 0
c gate 282 -69 -70 0
-69 -282 0
-70 -282 0
69 70 282 0
c gate 283 239 282 0
239 -283 0
282 -283 0
-239 -282 283 0
c gate 284 232 240 0
232 -284 0
240 -284 0
-232 -240 284 0
c gate 285 283 284 0
283 -285 0
284 -285 0
-283 -284 285 0
c gate 286 -49 -50 0
-49 -286 0
-50 -286 0
49 50 286 0
c gate 287 -47 -48 0
-47 -287 0
-48 -287 0
47 48 287 0
c gate 288 -45 -46 0
-45 -288 0
-46 -288 0
45 46 288 0
c gate 289 -43 -44 0
-43 -289 0
-44 -289 0
43 44 289 0
c gate 290 -40 -42 0
-40 -290 0
-42 -290 0
40 42 290 0
c gate 291 -38 -39 0
-38 -291 0
-39 -291 0
38 39 291 0
c gate 292 -36 -37 0
-36 -292 0
-37 -292 0
36 37 292 0
c gate 293 -34 -35 0
-34 -293 0
-35 -293 0
34 35 293 0
c gate 294 -13 -24 0
-13 -294 0
-24 -294 0
13 24 294 0
c gate 295 -96 -107 0
-96 -295 0
-107 -295 0
96 107 295 0
c gate 296 -74 -85 0
-74 -296 0
-85 -296 0
74 85 296 0
c gate 297 -52 -63 0
-52 -297 0
-63 -297 0
52 63 297 0
c gate 298 296 -297 0
296 -298 0
-297 -298 0
-296 297 298 0
c gate 299 295 -298 0
295 -299 0
-298 -299 0
-295 298 299 0
c gate 300 233 234 0
233 -300 0
234 -300 0
-233 -234 300 0
c gate 301 232 300 0
232 -301 0
300 -301 0
-232 -300 301 0
c gate 302 -56 -57 0
-56 -302 0
-57 -302 0
56 57 302 0
c gate 303 235 302 0
235 -303 0
302 -303 0
-235 -302 303 0
c gate 304 301 303 0
301 -304 0
303 -304 0
-301 -303 304 0
c gate 305 240 304 0
240 -305 0
304 -305 0
-240 -304 305 0
c gate 306 283 305 0
283 -306 0
305 -306 0
-283 -305 306 0
c gate 307 284 -300 0
284 -307 0
-300 -307 0
-284 300 307 0
c gate 308 43 44 0
43 -308 0
44 -308 0
-43 -44 308 0
c gate 309 45 46 0
45 -309 0
46 -309 0
-45 -46 309 0
c gate 310 308 309 0
308 -310 0
309 -310 0
-308 -309 310 0
c gate 311 307 -310 0
307 -311 0
-310 -311 0
-307 310 311 0
c gate 312 288 289 0
288 -312 0
289 -312 0
-288 -289 312 0
c gate 313 -307 -312 0
-307 -313 0
-312 -313 0
307 312 313 0
c gate 314 290 291 0
290 -314 0
291 -314 0
-290 -291 314 0
c gate 315 -313 314 0
-313 -315 0
314 -315 0
313 -314 315 0
c gate 316 -311 315 0
-311 -316 0
315 -316 0
311 -315 316 0
c gate 317 -54 -55 0
-54 -317 0
-55 -317 0
54 55 317 0
c gate 318 -51 -53 0
-51 -318 0
-53 -318 0
51 53 318 0
c gate 319 317 318 0
317 -319 0
318 -319 0
-317 -318 319 0
c gate 320 286 287 0
286 -320 0
287 -320 0
-286 -287 320 0
c gate 321 319 320 0
319 -321 0
320 -321 0
-319 -320 321 0
c gate 322 316 321 0
316 -322 0
321 -322 0
-316 -321 322 0
c gate 323 306 -322 0
306 -323 0
-322 -323 0
-306 322 323 0
c gate 324 306 321 0
306 -324 0
321 -324 0
-306 -321 324 0
c gate 325 292 293 0
292 -325 0
293 -325 0
-292 -293 325 0
c gate 326 -2 -118 0
-2 -326 0
-118 -326 0
2 118 326 0
c gate 327 294 326 0
294 -327 0
326 -327 0
-294 -326 327 0
c gate 328 325 327 0
325 -328 0
327 -328 0
-325 -327 328 0
c gate 329 324 328 0
324 -329 0
328 -329 0
-324 -328 329 0
c gate 330 -323 329 0
-323 -330 0
329 -330 0
323 -329 330 0
c gate 331 -299 330 0
-299 -331 0
330 -331 0
299 -330 331 0
c gate 332 294 -331 0
294 -332 0
-331 -332 0
-294 331 332 0
c gate 333 293 -332 0
293 -333 0
-332 -333 0
-293 332 333 0
c gate 334 292 -333 0
292 -334 0
-333 -334 0
-292 333 334 0
c gate 335 291 -334 0
291 -335 0
-334 -335 0
-291 334 335 0
c gate 336 290 -335 0
290 -336 0
-335 -336 0
-290 335 336 0
c gate 337 289 -336 0
289 -337 0
-336 -337 0
-289 336 337 0
c gate 338 288 -337 0
288 -338 0
-337 -338 0
-288 337 338 0
c gate 339 287 -338 0
287 -339 0
-338 -339 0
-287 338 339 0
c gate 340 286 -339 0
286 -340 0
-339 -340 0
-286 339 340 0
c gate 341 306 319 0
306 -341 0
319 -341 0
-306 -319 341 0
c gate 342 -340 341 0
-340 -342 0
341 -342 0
340 -341 342 0
c gate 343 306 -317 0
306 -343 0
-317 -343 0
-306 317 343 0
c gate 344 237 -343 0
237 -344 0
-343 -344 0
-237 343 344 0
c gate 345 -342 344 0
-342 -345 0
344 -345 0
342 -344 345 0
c gate 346 285 -345 0
285 -346 0
-345 -346 0
-285 345 346 0
c gate 347 -240 282 0
-240 -347 0
282 -347 0
240 -282 347 0
c gate 348 239 -347 0
239 -348 0
-347 -348 0
-239 347 348 0
c gate 349 -346 348 0
-346 -349 0
348 -349 0
346 -348 349 0
c gate 350 281 -349 0
281 -350 0
-349 -350 0
-281 349 350 0
c gate 351 229 -230 0
229 -351 0
-230 -351 0
-229 230 351 0
c gate 352 228 -351 0
228 -352 0
-351 -352 0
-228 351 352 0
c gate 353 -350 352 0
-350 -353 0
352 -353 0
350 -352 353 0
c gate 354 279 -353 0
279 -354 0
-353 -354 0
-279 353 354 0
c gate 355 225 -226 0
225 -355 0
-226 -355 0
-225 226 355 0
c gate 356 275 355 0
275 -356 0
355 -356 0
-275 -355 356 0
c gate 357 224 -356 0
224 -357 0
-356 -357 0
-224 356 357 0
c gate 358 -354 357 0
-354 -358 0
357 -358 0
354 -357 358 0
c gate 359 223 -358 0
223 -359 0
-358 -359 0
-223 358 359 0
c gate 360 221 -359 0
221 -360 0
-359 -360 0
-221 359 360 0
c gate 361 219 220 0
219 -361 0
220 -361 0
-219 -220 361 0
c gate 362 191 361 0
191 -362 0
361 -362 0
-191 -361 362 0
c gate 363 218 362 0
218 -363 0
362 -363 0
-218 -362 363 0
c gate 364 -360 363 0
-360 -364 0
363 -364 0
360 -363 364 0
c gate 365 218 -219 0
218 -365 0
-219 -365 0
-218 219 365 0
c gate 366 214 -365 0
214 -366 0
-365 -366 0
-214 365 366 0
c gate 367 -364 366 0
-364 -367 0
366 -367 0
364 -366 367 0
c gate 368 190 -367 0
190 -368 0
-367 -368 0
-190 367 368 0
c gate 369 189 -368 0
189 -369 0
-368 -369 0
-189 368 369 0
c gate 370 188 -369 0
188 -370 0
-369 -370 0
-188 369 370 0
c gate 371 187 -370 0
187 -371 0
-370 -371 0
-187 370 371 0
c gate 372 186 -371 0
186 -372 0
-371 -372 0
-186 371 372 0
c gate 373 185 -372 0
185 -373 0
-372 -373 0
-185 372 373 0
c gate 374 184 -373 0
184 -374 0
-373 -374 0
-184 373 374 0
c gate 375 183 -374 0
183 -375 0
-374 -375 0
-183 374 375 0
c gate 376 182 -375 0
182 -376 0
-375 -376 0
-182 375 376 0
c gate 377 173 -376 0
173 -377 0
-376 -377 0
-173 376 377 0
c gate 378 -25 -377 0
-25 -378 0
-377 -378 0
25 377 378 0
c gate 379 154 -378 0
154 -379 0
-378 -379 0
-154 378 379 0
c gate 380 156 -379 0
156 -380 0
-379 -380 0
-156 379 380 0
c gate 381 271 377 0
271 -381 0
377 -381 0
-271 -377 381 0
c gate 382 -23 -381 0
-23 -382 0
-381 -382 0
23 381 382 0
c gate 383 -380 382 0
-380 -383 0
382 -383 0
380 -382 383 0
c gate 384 -274 383 0
-274 -384 0
383 -384 0
274 -383 384 0
c gate 385 274 -383 0
274 -385 0
-383 -385 0
-274 383 385 0
c gate 386 -384 -385 0
-384 -386 0
-385 -386 0
384 385 386 0
c gate 387 23 -134 0
23 -387 0
-134 -387 0
-23 134 387 0
c gate 388 28 -33 0
28 -388 0
-33 -388 0
-28 33 388 0
c gate 389 -21 -388 0
-21 -389 0
-388 -389 0
21 388 389 0
c gate 390 -28 29 0
-28 -390 0
29 -390 0
28 -29 390 0
c gate 391 193 -390 0
193 -391 0
-390 -391 0
-193 390 391 0
c gate 392 389 391 0
389 -392 0
391 -392 0
-389 -391 392 0
c gate 393 -387 392 0
-387 -393 0
392 -393 0
387 -392 393 0
c gate 394 -386 393 0
-386 -394 0
393 -394 0
386 -393 394 0
c gate 395 189 210 0
189 -395 0
210 -395 0
-189 -210 395 0
c gate 396 105 -106 0
105 -396 0
-106 -396 0
-105 106 396 0
c gate 397 -108 -396 0
-108 -397 0
-396 -397 0
108 396 397 0
c gate 398 -109 -397 0
-109 -398 0
-397 -398 0
109 397 398 0
c gate 399 -110 -398 0
-110 -399 0
-398 -399 0
110 398 399 0
c gate 400 190 203 0
190 -400 0
203 -400 0
-190 -203 400 0
c gate 401 101 -102 0
101 -401 0
-102 -401 0
-101 102 401 0
c gate 402 -103 -401 0
-103 -402 0
-401 -402 0
103 401 402 0
c gate 403 221 361 0
221 -403 0
361 -403 0
-221 -361 403 0
c gate 404 90 -91 0
90 -404 0
-91 -404 0
-90 91 404 0
c gate 405 -92 -404 0
-92 -405 0
-404 -405 0
92 404 405 0
c gate 406 222 224 0
222 -406 0
224 -406 0
-222 -224 406 0
c gate 407 83 -84 0
83 -407 0
-84 -407 0
-83 84 407 0
c gate 408 -86 -407 0
-86 -408 0
-407 -408 0
86 407 408 0
c gate 409 -87 -408 0
-87 -409 0
-408 -409 0
87 408 409 0
c gate 410 -88 -409 0
-88 -410 0
-409 -410 0
88 409 410 0
c gate 411 225 276 0
225 -411 0
276 -411 0
-225 -276 411 0
c gate 412 79 -80 0
79 -412 0
-80 -412 0
-79 80 412 0
c gate 413 -81 -412 0
-81 -413 0
-412 -413 0
81 412 413 0
c gate 414 72 -73 0
72 -414 0
-73 -414 0
-72 73 414 0
c gate 415 -75 -414 0
-75 -415 0
-414 -415 0
75 414 415 0
c gate 416 -76 -415 0
-76 -416 0
-415 -416 0
76 415 416 0
c gate 417 -77 -416 0
-77 -417 0
-416 -417 0
77 416 417 0
c gate 418 61 -62 0
61 -418 0
-62 -418 0
-61 62 418 0
c gate 419 -64 -418 0
-64 -419 0
-418 -419 0
64 418 419 0
c gate 420 -65 -419 0
-65 -420 0
-419 -420 0
65 419 420 0
c gate 421 -66 -420 0
-66 -421 0
-420 -421 0
66 420 421 0
c gate 422 57 -58 0
57 -422 0
-58 -422 0
-57 58 422 0
c gate 423 -59 -422 0
-59 -423 0
-422 -423 0
59 422 423 0
c gate 424 286 319 0
286 -424 0
319 -424 0
-286 -319 424 0
c gate 425 46 -47 0
46 -425 0
-47 -425 0
-46 47 425 0
c gate 426 -48 -425 0
-48 -426 0
-425 -426 0
48 425 426 0
c gate 427 287 288 0
287 -427 0
288 -427 0
-287 -288 427 0
c gate 428 39 -40 0
39 -428 0
-40 -428 0
-39 40 428 0
c gate 429 -42 -428 0
-42 -429 0
-428 -429 0
42 428 429 0
c gate 430 -43 -429 0
-43 -430 0
-429 -430 0
43 429 430 0
c gate 431 -44 -430 0
-44 -431 0
-430 -431 0
44 430 431 0
c gate 432 289 314 0
289 -432 0
314 -432 0
-289 -314 432 0
c gate 433 35 -36 0
35 -433 0
-36 -433 0
-35 36 433 0
c gate 434 -37 -433 0
-37 -434 0
-433 -434 0
37 433 434 0
c gate 435 41 -52 0
41 -435 0
-52 -435 0
-41 52 435 0
c gate 436 -63 -435 0
-63 -436 0
-435 -436 0
63 435 436 0
c gate 437 -74 -436 0
-74 -437 0
-436 -437 0
74 436 437 0
c gate 438 -85 -437 0
-85 -438 0
-437 -438 0
85 437 438 0
c gate 439 -96 -438 0
-96 -439 0
-438 -439 0
96 438 439 0
c gate 440 -107 -439 0
-107 -440 0
-439 -440 0
107 439 440 0
c gate 441 -118 -440 0
-118 -441 0
-440 -441 0
118 440 441 0
c gate 442 -2 -441 0
-2 -442 0
-441 -442 0
2 441 442 0
c gate 443 -13 -442 0
-13 -443 0
-442 -443 0
13 442 443 0
c gate 444 -24 -443 0
-24 -444 0
-443 -444 0
24 443 444 0
c gate 445 325 -444 0
325 -445 0
-444 -445 0
-325 444 445 0
c gate 446 434 -445 0
434 -446 0
-445 -446 0
-434 445 446 0
c gate 447 432 -446 0
432 -447 0
-446 -447 0
-432 446 447 0
c gate 448 431 -447 0
431 -448 0
-447 -448 0
-431 447 448 0
c gate 449 427 -448 0
427 -449 0
-448 -449 0
-427 448 449 0
c gate 450 426 -449 0
426 -450 0
-449 -450 0
-426 449 450 0
c gate 451 424 -450 0
424 -451 0
-450 -451 0
-424 450 451 0
c gate 452 50 319 0
50 -452 0
319 -452 0
-50 -319 452 0
c gate 453 53 -54 0
53 -453 0
-54 -453 0
-53 54 453 0
c gate 454 -55 -453 0
-55 -454 0
-453 -454 0
55 453 454 0
c gate 455 -452 454 0
-452 -455 0
454 -455 0
452 -454 455 0
c gate 456 -451 455 0
-451 -456 0
455 -456 0
451 -455 456 0
c gate 457 303 -456 0
303 -457 0
-456 -457 0
-303 456 457 0
c gate 458 423 -457 0
423 -458 0
-457 -458 0
-423 457 458 0
c gate 459 301 -458 0
301 -459 0
-458 -459 0
-301 458 459 0
c gate 460 421 -459 0
421 -460 0
-459 -460 0
-421 459 460 0
c gate 461 -67 -460 0
-67 -461 0
-460 -461 0
67 460 461 0
c gate 462 -68 -461 0
-68 -462 0
-461 -462 0
68 461 462 0
c gate 463 -69 -462 0
-69 -463 0
-462 -463 0
69 462 463 0
c gate 464 -70 -463 0
-70 -464 0
-463 -464 0
70 463 464 0
c gate 465 230 231 0
230 -465 0
231 -465 0
-230 -231 465 0
c gate 466 239 465 0
239 -466 0
465 -466 0
-239 -465 466 0
c gate 467 -464 466 0
-464 -467 0
466 -467 0
464 -466 467 0
c gate 468 417 -467 0
417 -468 0
-467 -468 0
-417 467 468 0
c gate 469 280 -468 0
280 -469 0
-468 -469 0
-280 468 469 0
c gate 470 413 -469 0
413 -470 0
-469 -470 0
-413 469 470 0
c gate 471 411 -470 0
411 -471 0
-470 -471 0
-411 470 471 0
c gate 472 410 -471 0
410 -472 0
-471 -472 0
-410 471 472 0
c gate 473 406 -472 0
406 -473 0
-472 -473 0
-406 472 473 0
c gate 474 405 -473 0
405 -474 0
-473 -474 0
-405 473 474 0
c gate 475 403 -474 0
403 -475 0
-474 -475 0
-403 474 475 0
c gate 476 94 361 0
94 -476 0
361 -476 0
-94 -361 476 0
c gate 477 97 -98 0
97 -477 0
-98 -477 0
-97 98 477 0
c gate 478 -99 -477 0
-99 -478 0
-477 -478 0
99 477 478 0
c gate 479 -476 478 0
-476 -479 0
478 -479 0
476 -478 479 0
c gate 480 -475 479 0
-475 -480 0
479 -480 0
475 -479 480 0
c gate 481 216 -480 0
216 -481 0
-480 -481 0
-216 480 481 0
c gate 482 402 -481 0
402 -482 0
-481 -482 0
-402 481 482 0
c gate 483 400 -482 0
400 -483 0
-482 -483 0
-400 482 483 0
c gate 484 399 -483 0
399 -484 0
-483 -484 0
-399 483 484 0
c gate 485 395 -484 0
395 -485 0
-484 -485 0
-395 484 485 0
c gate 486 114 -115 0
114 -486 0
-115 -486 0
-114 115 486 0
c gate 487 -116 -486 0
-116 -487 0
-486 -487 0
116 486 487 0
c gate 488 -117 -487 0
-117 -488 0
-487 -488 0
117 487 488 0
c gate 489 -119 -488 0
-119 -489 0
-488 -489 0
119 488 489 0
c gate 490 -120 -489 0
-120 -490 0
-489 -490 0
120 489 490 0
c gate 491 -121 -490 0
-121 -491 0
-490 -491 0
121 490 491 0
c gate 492 -122 -491 0
-122 -492 0
-491 -492 0
122 491 492 0
c gate 493 -123 -492 0
-123 -493 0
-492 -493 0
123 492 493 0
c gate 494 -124 -493 0
-124 -494 0
-493 -494 0
124 493 494 0
c gate 495 112 210 0
112 -495 0
210 -495 0
-112 -210 495 0
c gate 496 -125 -495 0
-125 -496 0
-495 -496 0
125 495 496 0
c gate 497 -494 496 0
-494 -497 0
496 -497 0
494 -496 497 0
c gate 498 -485 497 0
-485 -498 0
497 -498 0
485 -497 498 0
c gate 499 432 -434 0
432 -499 0
-434 -499 0
-432 434 499 0
c gate 500 431 -499 0
431 -500 0
-499 -500 0
-431 499 500 0
c gate 501 427 -500 0
427 -501 0
-500 -501 0
-427 500 501 0
c gate 502 426 -501 0
426 -502 0
-501 -502 0
-426 501 502 0
c gate 503 424 -502 0
424 -503 0
-502 -503 0
-424 502 503 0
c gate 504 455 -503 0
455 -504 0
-503 -504 0
-455 503 504 0
c gate 505 303 -504 0
303 -505 0
-504 -505 0
-303 504 505 0
c gate 506 423 -505 0
423 -506 0
-505 -506 0
-423 505 506 0
c gate 507 301 -506 0
301 -507 0
-506 -507 0
-301 506 507 0
c gate 508 421 -507 0
421 -508 0
-507 -508 0
-421 507 508 0
c gate 509 -67 -508 0
-67 -509 0
-508 -509 0
67 508 509 0
c gate 510 -68 -509 0
-68 -510 0
-509 -510 0
68 509 510 0
c gate 511 -69 -510 0
-69 -511 0
-510 -511 0
69 510 511 0
c gate 512 -70 -511 0
-70 -512 0
-511 -512 0
70 511 512 0
c gate 513 466 -512 0
466 -513 0
-512 -513 0
-466 512 513 0
c gate 514 417 -513 0
417 -514 0
-513 -514 0
-417 513 514 0
c gate 515 280 -514 0
280 -515 0
-514 -515 0
-280 514 515 0
c gate 516 413 -515 0
413 -516 0
-515 -516 0
-413 515 516 0
c gate 517 411 -516 0
411 -517 0
-516 -517 0
-411 516 517 0
c gate 518 410 -517 0
410 -518 0
-517 -518 0
-410 517 518 0
c gate 519 406 -518 0
406 -519 0
-518 -519 0
-406 518 519 0
c gate 520 405 -519 0
405 -520 0
-519 -520 0
-405 519 520 0
c gate 521 403 -520 0
403 -521 0
-520 -521 0
-403 520 521 0
c gate 522 479 -521 0
479 -522 0
-521 -522 0
-479 521 522 0
c gate 523 216 -522 0
216 -523 0
-522 -523 0
-216 522 523 0
c gate 524 402 -523 0
402 -524 0
-523 -524 0
-402 523 524 0
c gate 525 400 -524 0
400 -525 0
-524 -525 0
-400 524 525 0
c gate 526 399 -525 0
399 -526 0
-525 -526 0
-399 525 526 0
c gate 527 395 -526 0
395 -527 0
-526 -527 0
-395 526 527 0
c gate 528 497 -527 0
497 -528 0
-527 -528 0
-497 527 528 0
c gate 529 127 -128 0
127 -529 0
-128 -529 0
-127 128 529 0
c gate 530 -3 -529 0
-3 -530 0
-529 -530 0
3 529 530 0
c gate 531 -4 -530 0
-4 -531 0
-530 -531 0
4 530 531 0
c gate 532 -5 -531 0
-5 -532 0
-531 -532 0
5 531 532 0
c gate 533 -6 -532 0
-6 -533 0
-532 -533 0
6 532 533 0
c gate 534 -7 -533 0
-7 -534 0
-533 -534 0
7 533 534 0
c gate 535 -8 -534 0
-8 -535 0
-534 -535 0
8 534 535 0
c gate 536 -9 -535 0
-9 -536 0
-535 -536 0
9 535 536 0
c gate 537 -10 -536 0
-10 -537 0
-536 -537 0
10 536 537 0
c gate 538 -11 -537 0
-11 -538 0
-537 -538 0
11 537 538 0
c gate 539 175 -538 0
175 -539 0
-538 -539 0
-175 538 539 0
c gate 540 14 -15 0
14 -540 0
-15 -540 0
-14 15 540 0
c gate 541 -16 -540 0
-16 -541 0
-540 -541 0
16 540 541 0
c gate 542 -539 541 0
-539 -542 0
541 -542 0
539 -541 542 0
c gate 543 174 -542 0
174 -543 0
-542 -543 0
-174 542 543 0
c gate 544 18 -19 0
18 -544 0
-19 -544 0
-18 19 544 0
c gate 545 -20 -544 0
-20 -545 0
-544 -545 0
20 544 545 0
c gate 546 -543 545 0
-543 -546 0
545 -546 0
543 -545 546 0
c gate 547 -21 -546 0
-21 -547 0
-546 -547 0
21 546 547 0
c gate 548 -22 -547 0
-22 -548 0
-547 -548 0
22 547 548 0
c gate 549 134 149 0
134 -549 0
149 -549 0
-134 -149 549 0
c gate 550 -548 549 0
-548 -550 0
549 -550 0
548 -549 550 0
c gate 551 25 -26 0
25 -551 0
-26 -551 0
-25 26 551 0
c gate 552 -27 -551 0
-27 -552 0
-551 -552 0
27 551 552 0
c gate 553 -550 552 0
-550 -553 0
552 -553 0
550 -552 553 0
c gate 554 195 -553 0
195 -554 0
-553 -554 0
-195 553 554 0
c gate 555 -528 -554 0
-528 -555 0
-554 -555 0
528 554 555 0
c gate 556 -498 555 0
-498 -556 0
555 -556 0
498 -555 556 0
c gate 557 498 -555 0
498 -557 0
-555 -557 0
-498 555 557 0
c gate 558 181 199 0
181 -558 0
199 -558 0
-181 -199 558 0
c gate 559 29 -30 0
29 -559 0
-30 -559 0
-29 30 559 0
c gate 560 -31 -559 0
-31 -560 0
-559 -560 0
31 559 560 0
c gate 561 558 560 0
558 -561 0
560 -561 0
-558 -560 561 0
c gate 562 -557 561 0
-557 -562 0
561 -562 0
557 -561 562 0
c gate 563 -556 562 0
-556 -563 0
562 -563 0
556 -562 563 0
c gate 564 -394 -563 0
-394 -564 0
-563 -564 0
394 563 564 0
c gate 565 -32 -564 0
-32 -565 0
-564 -565 0
32 564 565 0
c gate 566 32 -194 0
32 -566 0
-194 -566 0
-32 194 566 0
c gate 567 558 566 0
558 -567 0
566 -567 0
-558 -566 567 0
c gate 568 -498 567 0
-498 -568 0
567 -568 0
498 -567 568 0
c gate 569 -565 -568 0
-565 -569 0
-568 -569 0
565 568 569 0
c gate 570 -33 -569 0
-33 -570 0
-569 -570 0
33 569 570 0
c gate 571 201 218 0
201 -571 0
218 -571 0
-201 -218 571 0
c gate 572 222 403 0
222 -572 0
403 -572 0
-222 -403 572 0
c gate 573 571 572 0
571 -573 0
572 -573 0
-571 -572 573 0
c gate 574 230 281 0
230 -574 0
281 -574 0
-230 -281 574 0
c gate 575 181 574 0
181 -575 0
574 -575 0
-181 -574 575 0
c gate 576 279 575 0
279 -576 0
575 -576 0
-279 -575 576 0
c gate 577 -283 305 0
-283 -577 0
305 -577 0
283 -305 577 0
c gate 578 576 577 0
576 -578 0
577 -578 0
-576 -577 578 0
c gate 579 -97 98 0
-97 -579 0
98 -579 0
97 -98 579 0
c gate 580 -477 -579 0
-477 -580 0
-579 -580 0
477 579 580 0
c gate 581 -578 580 0
-578 -581 0
580 -581 0
578 -580 581 0
c gate 582 573 -581 0
573 -582 0
-581 -582 0
-573 581 582 0
c gate 583 -66 323 0
-66 -583 0
323 -583 0
66 -323 583 0
c gate 584 -330 -583 0
-330 -584 0
-583 -584 0
330 583 584 0
c gate 585 576 584 0
576 -585 0
584 -585 0
-576 -584 585 0
c gate 586 -66 -585 0
-66 -586 0
-585 -586 0
66 585 586 0
c gate 587 324 -586 0
324 -587 0
-586 -587 0
-324 586 587 0
c gate 588 -324 -584 0
-324 -588 0
-584 -588 0
324 584 588 0
c gate 589 285 -588 0
285 -589 0
-588 -589 0
-285 588 589 0
c gate 590 576 -589 0
576 -590 0
-589 -590 0
-576 589 590 0
c gate 591 -587 -590 0
-587 -591 0
-590 -591 0
587 590 591 0
c gate 592 279 -573 0
279 -592 0
-573 -592 0
-279 573 592 0
c gate 593 -591 -592 0
-591 -593 0
-592 -593 0
591 592 593 0
c gate 594 201 210 0
201 -594 0
210 -594 0
-201 -210 594 0
c gate 595 -275 587 0
-275 -595 0
587 -595 0
275 -587 595 0
c gate 596 -218 -595 0
-218 -596 0
-595 -596 0
218 595 596 0
c gate 597 -279 573 0
-279 -597 0
573 -597 0
279 -573 597 0
c gate 598 -596 -597 0
-596 -598 0
-597 -598 0
596 597 598 0
c gate 599 594 -598 0
594 -599 0
-598 -599 0
-594 598 599 0
c gate 600 -593 -599 0
-593 -600 0
-599 -600 0
593 599 600 0
c gate 601 -316 321 0
-316 -601 0
321 -601 0
316 -321 601 0
c gate 602 304 -601 0
304 -602 0
-601 -602 0
-304 601 602 0
c gate 603 284 -602 0
284 -603 0
-602 -603 0
-284 602 603 0
c gate 604 575 -603 0
575 -604 0
-603 -604 0
-575 603 604 0
c gate 605 278 -604 0
278 -605 0
-604 -605 0
-278 604 605 0
c gate 606 275 361 0
275 -606 0
361 -606 0
-275 -361 606 0
c gate 607 -605 606 0
-605 -607 0
606 -607 0
605 -606 607 0
c gate 608 218 -607 0
218 -608 0
-607 -608 0
-218 607 608 0
c gate 609 594 -608 0
594 -609 0
-608 -609 0
-594 608 609 0
c gate 610 207 609 0
207 -610 0
609 -610 0
-207 -609 610 0
c gate 611 600 610 0
600 -611 0
610 -611 0
-600 -610 611 0
c gate 612 -582 -611 0
-582 -612 0
-611 -612 0
582 611 612 0
c gate 613 181 -612 0
181 -613 0
-612 -613 0
-181 612 613 0
c gate 614 -198 -208 0
-198 -614 0
-208 -614 0
198 208 614 0
c gate 615 -192 198 0
-192 -615 0
198 -615 0
192 -198 615 0
c gate 616 -207 -615 0
-207 -616 0
-615 -616 0
207 615 616 0
c gate 617 -192 207 0
-192 -617 0
207 -617 0
192 -207 617 0
c gate 618 181 -617 0
181 -618 0
-617 -618 0
-181 617 618 0
c gate 619 -616 618 0
-616 -619 0
618 -619 0
616 -618 619 0
c gate 620 -609 619 0
-609 -620 0
619 -620 0
609 -619 620 0
c gate 621 -614 -620 0
-614 -621 0
-620 -621 0
614 620 621 0
c gate 622 -600 -621 0
-600 -622 0
-621 -622 0
600 621 622 0
c gate 623 314 -325 0
314 -623 0
-325 -623 0
-314 325 623 0
c gate 624 312 -623 0
312 -624 0
-623 -624 0
-312 623 624 0
c gate 625 320 -624 0
320 -625 0
-624 -625 0
-320 624 625 0
c gate 626 319 -625 0
319 -626 0
-625 -626 0
-319 625 626 0
c gate 627 303 -626 0
303 -627 0
-626 -627 0
-303 626 627 0
c gate 628 300 -627 0
300 -628 0
-627 -628 0
-300 627 628 0
c gate 629 284 575 0
284 -629 0
575 -629 0
-284 -575 629 0
c gate 630 -628 629 0
-628 -630 0
629 -630 0
628 -629 630 0
c gate 631 280 -630 0
280 -631 0
-630 -631 0
-280 630 631 0
c gate 632 276 -631 0
276 -632 0
-631 -632 0
-276 631 632 0
c gate 633 277 -632 0
277 -633 0
-632 -633 0
-277 632 633 0
c gate 634 275 -633 0
275 -634 0
-633 -634 0
-275 633 634 0
c gate 635 361 -634 0
361 -635 0
-634 -635 0
-361 634 635 0
c gate 636 571 -635 0
571 -636 0
-635 -636 0
-571 635 636 0
c gate 637 295 296 0
295 -637 0
296 -637 0
-295 -296 637 0
c gate 638 330 -637 0
330 -638 0
-637 -638 0
-330 637 638 0
c gate 639 305 -626 0
305 -639 0
-626 -639 0
-305 626 639 0
c gate 640 283 -307 0
283 -640 0
-307 -640 0
-283 307 640 0
c gate 641 -639 640 0
-639 -641 0
640 -641 0
639 -640 641 0
c gate 642 -638 641 0
-638 -642 0
641 -642 0
638 -641 642 0
c gate 643 575 -642 0
575 -643 0
-642 -643 0
-575 642 643 0
c gate 644 280 -643 0
280 -644 0
-643 -644 0
-280 643 644 0
c gate 645 276 -644 0
276 -645 0
-644 -645 0
-276 644 645 0
c gate 646 277 -645 0
277 -646 0
-645 -646 0
-277 645 646 0
c gate 647 573 -646 0
573 -647 0
-646 -647 0
-573 646 647 0
c gate 648 216 -361 0
216 -648 0
-361 -648 0
-216 361 648 0
c gate 649 594 648 0
594 -649 0
648 -649 0
-594 -648 649 0
c gate 650 -647 -649 0
-647 -650 0
-649 -650 0
647 649 650 0
c gate 651 636 -650 0
636 -651 0
-650 -651 0
-636 650 651 0
c gate 652 -636 650 0
-636 -652 0
650 -652 0
636 -650 652 0
c gate 653 211 558 0
211 -653 0
558 -653 0
-211 -558 653 0
c gate 654 -652 653 0
-652 -654 0
653 -654 0
652 -653 654 0
c gate 655 -651 654 0
-651 -655 0
654 -655 0
651 -654 655 0
c gate 656 -1 -41 0
-1 -656 0
-41 -656 0
1 41 656 0
c gate 657 297 656 0
297 -657 0
656 -657 0
-297 -656 657 0
c gate 658 361 657 0
361 -658 0
657 -658 0
-361 -657 658 0
c gate 659 637 658 0
637 -659 0
658 -659 0
-637 -658 659 0
c gate 660 330 659 0
330 -660 0
659 -660 0
-330 -659 660 0
c gate 661 576 660 0
576 -661 0
660 -661 0
-576 -660 661 0
c gate 662 571 661 0
571 -662 0
661 -662 0
-571 -661 662 0
c gate 663 305 -322 0
305 -663 0
-322 -663 0
-305 322 663 0
c gate 664 576 -663 0
576 -664 0
-663 -664 0
-576 663 664 0
c gate 665 -98 278 0
-98 -665 0
278 -665 0
98 -278 665 0
c gate 666 575 665 0
575 -666 0
665 -666 0
-575 -665 666 0
c gate 667 -323 666 0
-323 -667 0
666 -667 0
323 -666 667 0
c gate 668 -664 667 0
-664 -668 0
667 -668 0
664 -667 668 0
c gate 669 573 668 0
573 -669 0
668 -669 0
-573 -668 669 0
c gate 670 -662 -669 0
-662 -670 0
-669 -670 0
662 669 670 0
c gate 671 -655 670 0
-655 -671 0
670 -671 0
655 -670 671 0
c gate 672 -622 671 0
-622 -672 0
671 -672 0
622 -671 672 0
c gate 673 -613 672 0
-613 -673 0
672 -673 0
613 -672 673 0
c gate 674 -570 673 0
-570 -674 0
673 -674 0
570 -673 674 0
c PO
-674 0
